10
0 669 137 312 688 623 767 688 691 849
669 0 595 417 1105 267 372 892 634 878
137 595 0 197 818 604 758 789 744 928
312 417 197 0 939 491 649 845 723 939
688 1105 818 939 0 892 938 320 621 542
623 267 604 491 892 0 159 646 370 612
767 372 758 649 938 159 0 655 343 565
688 892 789 845 320 646 655 0 318 234
691 634 744 723 621 370 343 318 0 244
849 878 928 939 542 612 565 234 244 0
